#Pair Coeffs

pair_coeff	1	1    0.152100    3.150700
pair_coeff	1	2    0.000000    1.575350
pair_coeff	2	2    0.000000    0.000000
